This is Ipopt version 3.10.0, running with linear solver ma27.

Number of nonzeros in equality constraint Jacobian...:        2
Number of nonzeros in inequality constraint Jacobian.:        4
Number of nonzeros in Lagrangian Hessian.............:        0

Total number of variables............................:        2
                     variables with only lower bounds:        0
                variables with lower and upper bounds:        2
                     variables with only upper bounds:        0
Total number of equality constraints.................:        1
Total number of inequality constraints...............:        2
        inequality constraints with only lower bounds:        0
   inequality constraints with lower and upper bounds:        0
        inequality constraints with only upper bounds:        2

iter    objective    inf_pr   inf_du lg(mu)  ||d||  lg(rg) alpha_du alpha_pr  ls
   0  9.6100000e+04 4.66e-01 3.00e+02   0.0 0.00e+00    -  0.00e+00 0.00e+00   0
   1  9.5488108e+04 4.63e-01 4.42e+03   2.0 3.61e+02    -  4.30e-01 4.45e-03f  1
   2  1.0183885e+05 3.12e-01 1.35e+05   1.7 1.83e+02    -  8.69e-03 2.80e-01h  1
   3  1.2352062e+05 6.07e-02 2.65e+02   2.3 1.30e+02    -  1.00e+00 1.00e+00h  1
   4  1.2867187e+05 6.32e-03 2.68e+03   1.3 1.35e+01    -  9.92e-01 8.63e-01h  1
   5  1.2952103e+05 5.83e-04 1.15e+00  -0.6 1.61e+00    -  1.00e+00 1.00e+00h  1
   6  1.2941366e+05 9.29e-05 7.79e-01  -2.0 1.89e-01    -  9.95e-01 9.96e-01f  1
   7  1.2942624e+05 8.03e-06 1.10e-04  -3.8 2.19e-02    -  1.00e+00 1.00e+00h  1
   8  1.2942504e+05 1.40e-06 4.75e-05  -9.8 2.30e-03    -  1.00e+00 1.00e+00f  1

Number of Iterations....: 8

                                   (scaled)                 (unscaled)
Objective...............:   1.2942504420000240e+05    1.2942504420000240e+05
Dual infeasibility......:   4.7462381189689040e-05    4.7462381189689040e-05
Constraint violation....:   1.3971442739557739e-06    1.3971442739557739e-06
Complementarity.........:   5.2047806813324118e-09    5.2047806813324118e-09
Overall NLP error.......:   1.3971442739557739e-06    4.7462381189689040e-05


Number of objective function evaluations             = 9
Number of objective gradient evaluations             = 9
Number of equality constraint evaluations            = 9
Number of inequality constraint evaluations          = 9
Number of equality constraint Jacobian evaluations   = 9
Number of inequality constraint Jacobian evaluations = 9
Number of Lagrangian Hessian evaluations             = 0
Total CPU secs in IPOPT (w/o function evaluations)   =      0.013
Total CPU secs in NLP function evaluations           =      6.989

EXIT: Optimal Solution Found.
